42
863
1734 53
1736 53
1733 54
1733 55
1736 54
1737 54
1737 54
1733 53
1737 53
1736 54
1733 52
1735 54
1736 53
1734 55
1734 54
1736 54
1735 54
1737 55
1738 54
1738 52
1737 54
1738 54
1733 54
1734 55
1737 55
1733 52
1734 54
1737 55
1735 55
1736 54
1734 54
1738 53
1736 52
1734 52
1733 52
1737 55
1738 55
1737 54
1738 53
1734 55
1735 51
1738 56